
%FILE DATA:	Soccer Computational Problem for MiniZinc Models	%
%AUTHOR:	Jack Wall	%
%CONTACT:  	116397063@umail.ucc.ie			%
%LAST UPDATE:	03/12/2020, 10:36:46						%
%DESCRIPTION: 	117 games played with 39 games left				%


n=13; %number of teams

%Games to play
games=[|4,1|12,7|5,4|8,6|9,8|11,2|4,13|10,7|11,8|12,2|9,1|6,3|11,7|10,3|11,5|10,2|6,8|13,7|13,3|13,5|9,3|3,1|3,7|7,4|11,12|2,9|7,11|5,6|13,2|2,8|12,1|6,2|2,11|10,9|10,13|4,12|11,1|4,2|10,5|];

%Initial points
iPoints=[27,21,23,30,24,22,26,24,23,23,22,35,15];

%POSITION CONSTRAINTS
% [|teamID, operator, position|...]
% operators index:
%  1 for =  operator
%  2 for >  operator
%  3 for >= operator
%  4 for <  operator
%  5 for <= operator
positionConstraints=[|12,1,1|11,1,2|4,1,3|10,5,4|];